 vasp.6.3.2 27Jun22 (build Mar 23 2024 20:02:39) complex

 executed on             LinuxIFC date 2025.06.11  09:37:12

 INCAR:
   SYSTEM = DOS
   PREC = Accurate
   ENCUT = 520
   ISTART = 1
   ICHARG = 11
   EDIFF = 1E-5
   EDIFFG = -0.01
   NELM = 100
   NELMIN = 2
   ALGO = Normal
   ISMEAR = 0
   SIGMA = 0.05
   IBRION = -1
   NSW = 0
   ISIF = 2
   POTIM = 0
   ISPIN = 2
   LDAU = .TRUE.
   LDAUTYPE = 2
   LDAUL = -1  2  -1 -1
   LDAUU = 0  5  0  0
   LDAUJ = 0  0  0   0
   LMAXMIX = 4
   GGA = PE
   LREAL = Auto
   LWAVE = .FALSE.
   LCHARG = .FALSE.
   NEDOS = 5000
   LORBIT = 11

 POTCAR:   PAW_PBE Li_sv 23Jan2001
 POTCAR:   PAW_PBE Fe 06Sep2000
 POTCAR:    PAW_PBE P 17Jan2003
 POTCAR:   PAW_PBE O 08Apr2002
|           W    W    AA    RRRRR   N    N  II  N    N   GGGG   !!!           |
|           W    W   A  A   R    R  NN   N  II  NN   N  G    G  !!!           |
|           W    W  A    A  R    R  N N  N  II  N N  N  G       !!!           |
|           W WW W  AAAAAA  RRRRR   N  N N  II  N  N N  G  GGG   !            |
|           WW  WW  A    A  R   R   N   NN  II  N   NN  G    G                |
|           W    W  A    A  R    R  N    N  II  N    N   GGGG   !!!           |
|     You use a magnetic or noncollinear calculation, but did not specify     |
|     the initial magnetic moment with the MAGMOM tag. Note that a            |
|     default of 1 will be used for all atoms. This ferromagnetic setup       |
|     may break the symmetry of the crystal, in particular it may rule        |
|     out finding an antiferromagnetic solution. Thence, we recommend         |
|     setting the initial magnetic moment manually or verifying carefully     |
|     that this magnetic setup is desired.                                    |

 POTCAR:   PAW_PBE Li_sv 23Jan2001
   VRHFIN =Li: 1s2s2p

   TITEL  = PAW_PBE Li_sv 23Jan2001
   POMASS =    7.010; ZVAL   =    3.000    mass and valenz
   ENMAX  =  271.649; ENMIN  =  203.737 eV
   QCUT   =   -4.468; QGAM   =    8.937    optimization parameters

   Description
     l     E      TYP  RCUT    TYP  RCUT
     0   .000     23  1.550
     0   .000     23  2.050
     0   .000     23  1.550
     0   .000     23  2.050
     1  -.200     23  2.050
     1  1.500     23  2.050
     2   .000      7  1.550

 POTCAR:   PAW_PBE Fe 06Sep2000
   VRHFIN =Fe:  d7 s1

   TITEL  = PAW_PBE Fe 06Sep2000
   POMASS =   55.847; ZVAL   =    8.000    mass and valenz
   ENMAX  =  267.883; ENMIN  =  200.912 eV
   QCUT   =   -4.437; QGAM   =    8.874    optimization parameters

[...]

 POTCAR:    PAW_PBE P 17Jan2003
   VRHFIN =P : s2p3

   TITEL  = PAW_PBE P 17Jan2003
   POMASS =   30.974; ZVAL   =    5.000    mass and valenz
   ENMAX  =  270.000; ENMIN  =  191.280 eV
   QCUT   =   -4.330; QGAM   =    8.659    optimization parameters

[...]

 POTCAR:   PAW_PBE O 08Apr2002
   VRHFIN =O: s2p4

   TITEL  = PAW_PBE O 08Apr2002
   POMASS =   16.000; ZVAL   =    6.000    mass and valenz
   ENMAX  =  400.000; ENMIN  =  300.000 eV
   QCUT   =   -5.520; QGAM   =   11.041    optimization parameters

   Description
     l     E      TYP  RCUT    TYP  RCUT
     0   .000     23  1.200
     0  -.700     23  1.200
     1   .000     23  1.520
     1   .600     23  1.520
     2   .000      7  1.500

 Optimization of the real space projectors (new method)

 maximal supplied QI-value         = 18.33
 optimisation between [QCUT,QGAM] = [ 11.55, 23.28] = [ 37.34,151.76] Ry
 Optimized for a Real-space Cutoff    1.32 Angstroem

   l    n(q)    QCUT    max X(q) W(low)/X(q) W(high)/X(q)  e(spline)
   0      9    11.548     5.519    0.68E-05    0.20E-05    0.27E-07
   0      9    11.548    24.272    0.42E-04    0.24E-04    0.63E-07
   1      9    11.548     4.148    0.83E-04    0.77E-04    0.38E-06
   1      9    11.548    11.842    0.23E-03    0.17E-03    0.54E-06
 Optimization of the real space projectors (new method)

[...]

   l    n(q)    QCUT    max X(q) W(low)/X(q) W(high)/X(q)  e(spline)
   0      8    11.508     6.651    0.19E-04    0.31E-05    0.49E-08
   0      8    11.508    90.285    0.95E-04    0.17E-03    0.51E-07
   1      8    11.508     4.328    0.14E-04    0.32E-04    0.22E-07
   1      8    11.508    54.583    0.16E-03    0.71E-04    0.89E-07
 Optimization of the real space projectors (new method)

 maximal supplied QI-value         = 24.76
 optimisation between [QCUT,QGAM] = [ 11.64, 23.27] = [ 37.91,151.63] Ry
 Optimized for a Real-space Cutoff    1.08 Angstroem

   l    n(q)    QCUT    max X(q) W(low)/X(q) W(high)/X(q)  e(spline)
   0      7    11.635     4.192    0.54E-04    0.80E-04    0.26E-07
   0      7    11.635     8.473    0.70E-04    0.40E-03    0.21E-06
   1      7    11.635     2.474    0.39E-04    0.14E-03    0.23E-07
   1      7    11.635     3.912    0.25E-03    0.37E-03    0.22E-06
 PAW_PBE Li_sv 23Jan2001                :
 PAW_PBE Fe 06Sep2000                   :
  PAW_PBE P 17Jan2003                   :
 PAW_PBE O 08Apr2002                    :

 POSCAR: Li4 Fe4 P4 O16
  positions in direct lattice
  velocities in cartesian coordinates
 exchange correlation table for  LEXCH =        8
   RHO(1)=    0.500       N(1)  =     2000
   RHO(2)=  100.500       N(2)  =     4000

 ion  position               nearest neighbor table
   1  0.000  0.000  0.000-  68 2.11  89 2.11  51 2.20  62 2.20  73 2.22  60 2.22  33 2.69  48 2.69

   2  0.000  0.500  0.000-  67 2.11  90 2.11  52 2.20  61 2.20  74 2.22  59 2.22  34 2.69  47 2.69

[...]

  17  0.263  0.125  0.781-  53 2.09  58 2.09  89 2.14 101 2.22  77 2.27 105 2.27  41 2.87
  18  0.263  0.625  0.781-  54 2.09  57 2.09  90 2.14 102 2.22  78 2.27 106 2.27  42 2.87
  19  0.763  0.125  0.781-  55 2.09  60 2.09  91 2.14 103 2.22  79 2.27 107 2.27  43 2.87
  20  0.763  0.625  0.781-  56 2.09  59 2.09  92 2.14 104 2.22  80 2.27 108 2.27  44 2.87
  21  0.013  0.375  0.719-  77 2.09 106 2.09  99 2.14  61 2.22  55 2.27  59 2.27  47 2.87
  22  0.013  0.875  0.719-  78 2.09 105 2.09 100 2.14  62 2.22  56 2.27  60 2.27  48 2.87
  23  0.513  0.375  0.719-  79 2.09 108 2.09  97 2.14  63 2.22  53 2.27  57 2.27  45 2.87
  24  0.513  0.875  0.719-  80 2.09 107 2.09  98 2.14  64 2.22  54 2.27  58 2.27  46 2.87
  25  0.487  0.125  0.281-  81 2.09  86 2.09  95 2.14  49 2.22  75 2.27 111 2.27  35 2.87
  26  0.487  0.625  0.281-  82 2.09  85 2.09  96 2.14  50 2.22  76 2.27 112 2.27  36 2.87
  27  0.987  0.125  0.281-  83 2.09  88 2.09  93 2.14  51 2.22  73 2.27 109 2.27  33 2.87
  28  0.987  0.625  0.281-  84 2.09  87 2.09  94 2.14  52 2.22  74 2.27 110 2.27  34 2.87
  29  0.237  0.375  0.219-  74 2.09 109 2.09  65 2.14  69 2.22  85 2.27  81 2.27  37 2.87
  30  0.237  0.875  0.219-  73 2.09 110 2.09  66 2.14  70 2.22  86 2.27  82 2.27  38 2.87
  31  0.737  0.375  0.219-  76 2.09 111 2.09  67 2.14  71 2.22  87 2.27  83 2.27  39 2.87
  32  0.737  0.875  0.219-  75 2.09 112 2.09  68 2.14  72 2.22  88 2.27  84 2.27  40 2.87
  33  0.209  0.125  0.095-  49 1.54  89 1.55  73 1.57 109 1.57   1 2.69  13 2.69  27 2.87
  34  0.209  0.625  0.095-  50 1.54  90 1.55  74 1.57 110 1.57   2 2.69  14 2.69  28 2.87
  35  0.709  0.125  0.095-  51 1.54  91 1.55  75 1.57 111 1.57   3 2.69  15 2.69  25 2.87
  36  0.709  0.625  0.095-  52 1.54  92 1.55  76 1.57 112 1.57   4 2.69  16 2.69  26 2.87
  37  0.459  0.375  0.405-  71 1.54  97 1.55  85 1.57  81 1.57   5 2.69  10 2.69  29 2.87
  38  0.459  0.875  0.405-  72 1.54  98 1.55  86 1.57  82 1.57   6 2.69   9 2.69  30 2.87
  39  0.959  0.375  0.405-  69 1.54  99 1.55  87 1.57  83 1.57   7 2.69  12 2.69  31 2.87
  40  0.959  0.875  0.405-  70 1.54 100 1.55  88 1.57  84 1.57   8 2.69  11 2.69  32 2.87
  41  0.041  0.125  0.595- 103 1.54  93 1.55  77 1.57 105 1.57   5 2.69   9 2.69  17 2.87
  42  0.041  0.625  0.595- 104 1.54  94 1.55  78 1.57 106 1.57   6 2.69  10 2.69  18 2.87
  43  0.541  0.125  0.595- 101 1.54  95 1.55  79 1.57 107 1.57   7 2.69  11 2.69  19 2.87
  44  0.541  0.625  0.595- 102 1.54  96 1.55  80 1.57 108 1.57   8 2.69  12 2.69  20 2.87
  45  0.291  0.375  0.905-  61 1.54  65 1.55  53 1.57  57 1.57   4 2.69  15 2.69  23 2.87
  46  0.291  0.875  0.905-  62 1.54  66 1.55  54 1.57  58 1.57   3 2.69  16 2.69  24 2.87
  47  0.791  0.375  0.905-  63 1.54  67 1.55  55 1.57  59 1.57   2 2.69  13 2.69  21 2.87
  48  0.791  0.875  0.905-  64 1.54  68 1.55  56 1.57  60 1.57   1 2.69  14 2.69  22 2.87
  49  0.371  0.125  0.097-  33 1.54  15 2.20   3 2.20  25 2.22
  50  0.371  0.625  0.097-  34 1.54  16 2.20   4 2.20  26 2.22
  51  0.871  0.125  0.097-  35 1.54  13 2.20   1 2.20  27 2.22
  52  0.871  0.625  0.097-  36 1.54  14 2.20   2 2.20  28 2.22
  53  0.357  0.273  0.834-  45 1.57  17 2.09  15 2.22  23 2.27
  54  0.357  0.773  0.834-  46 1.57  18 2.09  16 2.22  24 2.27
  55  0.857  0.273  0.834-  47 1.57  19 2.09  13 2.22  21 2.27
  56  0.857  0.773  0.834-  48 1.57  20 2.09  14 2.22  22 2.27
  57  0.357  0.477  0.834-  45 1.57  18 2.09   4 2.22  23 2.27
  58  0.357  0.977  0.834-  46 1.57  17 2.09   3 2.22  24 2.27
  59  0.857  0.477  0.834-  47 1.57  20 2.09   2 2.22  21 2.27
  60  0.857  0.977  0.834-  48 1.57  19 2.09   1 2.22  22 2.27
  61  0.129  0.375  0.903-  45 1.54  13 2.20   2 2.20  21 2.22
  62  0.129  0.875  0.903-  46 1.54  14 2.20   1 2.20  22 2.22
  63  0.629  0.375  0.903-  47 1.54  15 2.20   4 2.20  23 2.22
  64  0.629  0.875  0.903-  48 1.54  16 2.20   3 2.20  24 2.22
  65  0.354  0.375  0.043-  45 1.55  15 2.11   4 2.11  29 2.14
  66  0.354  0.875  0.043-  46 1.55  16 2.11   3 2.11  30 2.14
  67  0.854  0.375  0.043-  47 1.55  13 2.11   2 2.11  31 2.14
  68  0.854  0.875  0.043-  48 1.55  14 2.11   1 2.11  32 2.14
  69  0.121  0.375  0.403-  39 1.54  10 2.20   5 2.20  29 2.22
  70  0.121  0.875  0.403-  40 1.54   9 2.20   6 2.20  30 2.22
  71  0.621  0.375  0.403-  37 1.54  12 2.20   7 2.20  31 2.22
  72  0.621  0.875  0.403-  38 1.54  11 2.20   8 2.20  32 2.22
  73  0.143  0.023  0.166-  33 1.57  30 2.09   1 2.22  27 2.27
  74  0.143  0.523  0.166-  34 1.57  29 2.09   2 2.22  28 2.27
  75  0.643  0.023  0.166-  35 1.57  32 2.09   3 2.22  25 2.27
  76  0.643  0.523  0.166-  36 1.57  31 2.09   4 2.22  26 2.27
[...]
  98  0.396  0.875  0.543-  38 1.55   9 2.11   6 2.11  24 2.14
  99  0.896  0.375  0.543-  39 1.55  12 2.11   7 2.11  21 2.14
 100  0.896  0.875  0.543-  40 1.55  11 2.11   8 2.11  22 2.14
 101  0.379  0.125  0.597-  43 1.54   9 2.20   5 2.20  17 2.22
 102  0.379  0.625  0.597-  44 1.54  10 2.20   6 2.20  18 2.22
 103  0.879  0.125  0.597-  41 1.54  11 2.20   7 2.20  19 2.22
 104  0.879  0.625  0.597-  42 1.54  12 2.20   8 2.20  20 2.22
 105  0.107  0.023  0.666-  41 1.57  22 2.09   9 2.22  17 2.27
 106  0.107  0.523  0.666-  42 1.57  21 2.09  10 2.22  18 2.27
 107  0.607  0.023  0.666-  43 1.57  24 2.09  11 2.22  19 2.27
 108  0.607  0.523  0.666-  44 1.57  23 2.09  12 2.22  20 2.27
 109  0.143  0.227  0.166-  33 1.57  29 2.09  13 2.22  27 2.27
 110  0.143  0.727  0.166-  34 1.57  30 2.09  14 2.22  28 2.27
 111  0.643  0.227  0.166-  35 1.57  31 2.09  15 2.22  25 2.27
 112  0.643  0.727  0.166-  36 1.57  32 2.09  16 2.22  26 2.27

  LATTYP: Found a simple orthorhombic cell.
 ALAT       =     9.5093176167
 B/A-ratio  =     1.0961933240
 C/A-ratio  =     1.2782009111

[...]
   -.258E+02 -.906E-12 0.220E+02   0.253E+02 -.213E-13 -.227E+02   0.846E-01 -.324E-20 0.880E+00   0.384E+00 -.563E-10 -.150E+00
   0.258E+02 0.276E-11 -.220E+02   -.253E+02 -.178E-14 0.227E+02   -.846E-01 0.353E-20 -.880E+00   -.384E+00 0.494E-10 0.150E+00
   0.258E+02 -.229E-12 -.220E+02   -.253E+02 -.142E-13 0.227E+02   -.846E-01 0.481E-20 -.880E+00   -.384E+00 0.567E-10 0.150E+00
   0.258E+02 0.381E-11 -.220E+02   -.253E+02 -.444E-13 0.227E+02   -.846E-01 0.350E-20 -.880E+00   -.384E+00 0.559E-10 0.150E+00
   0.258E+02 -.431E-12 -.220E+02   -.253E+02 0.213E-13 0.227E+02   -.846E-01 0.468E-20 -.880E+00   -.384E+00 0.546E-10 0.150E+00
   0.258E+02 -.702E-12 0.220E+02   -.253E+02 0.533E-14 -.227E+02   -.846E-01 -.377E-20 0.880E+00   -.384E+00 -.356E-10 -.150E+00
   0.258E+02 -.125E-11 0.220E+02   -.253E+02 0.604E-13 -.227E+02   -.846E-01 -.491E-20 0.880E+00   -.384E+00 -.493E-10 -.150E+00
   0.258E+02 -.207E-11 0.220E+02   -.253E+02 0.142E-13 -.227E+02   -.846E-01 -.366E-20 0.880E+00   -.384E+00 -.409E-10 -.150E+00
   0.258E+02 -.223E-11 0.220E+02   -.253E+02 0.000E+00 -.227E+02   -.846E-01 -.475E-20 0.880E+00   -.384E+00 -.473E-10 -.150E+00
   -.299E+02 -.493E-12 0.556E+01   0.304E+02 -.178E-14 -.679E+01   -.749E+00 0.133E-19 0.129E+01   0.310E+00 0.103E-10 -.114E+00
   -.299E+02 -.104E-11 0.556E+01   0.304E+02 0.338E-13 -.679E+01   -.749E+00 0.744E-20 0.129E+01   0.310E+00 0.971E-11 -.114E+00
   -.299E+02 -.369E-11 0.556E+01   0.304E+02 -.355E-13 -.679E+01   -.749E+00 0.128E-19 0.129E+01   0.310E+00 0.853E-11 -.114E+00
   -.299E+02 0.164E-11 0.556E+01   0.304E+02 0.000E+00 -.679E+01   -.749E+00 0.783E-20 0.129E+01   0.310E+00 0.109E-10 -.114E+00
   -.299E+02 0.544E-12 -.556E+01   0.304E+02 0.124E-13 0.679E+01   -.749E+00 -.488E-20 -.129E+01   0.310E+00 0.902E-12 0.114E+00
   -.299E+02 0.507E-12 -.556E+01   0.304E+02 0.355E-14 0.679E+01   -.749E+00 -.651E-20 -.129E+01   0.310E+00 -.151E-11 0.114E+00
   -.299E+02 0.180E-11 -.556E+01   0.304E+02 -.169E-13 0.679E+01   -.749E+00 -.370E-20 -.129E+01   0.310E+00 0.356E-12 0.114E+00
   -.299E+02 -.142E-11 -.556E+01   0.304E+02 0.533E-14 0.679E+01   -.749E+00 -.121E-19 -.129E+01   0.310E+00 -.101E-11 0.114E+00
   0.299E+02 -.248E-12 0.556E+01   -.304E+02 -.120E-13 -.679E+01   0.749E+00 0.134E-19 0.129E+01   -.310E+00 0.182E-11 -.114E+00
   0.299E+02 -.261E-12 0.556E+01   -.304E+02 -.493E-13 -.679E+01   0.749E+00 0.711E-20 0.129E+01   -.310E+00 0.454E-12 -.114E+00
   0.299E+02 -.913E-12 0.556E+01   -.304E+02 -.320E-13 -.679E+01   0.749E+00 0.126E-19 0.129E+01   -.310E+00 0.301E-11 -.114E+00
   0.299E+02 -.113E-11 0.556E+01   -.304E+02 0.160E-13 -.679E+01   0.749E+00 0.820E-20 0.129E+01   -.310E+00 -.112E-11 -.114E+00
   0.299E+02 0.193E-13 -.556E+01   -.304E+02 -.622E-13 0.679E+01   0.749E+00 -.137E-19 -.129E+01   -.310E+00 -.739E-11 0.114E+00
   0.299E+02 0.512E-12 -.556E+01   -.304E+02 -.249E-13 0.679E+01   0.749E+00 -.136E-19 -.129E+01   -.310E+00 -.126E-10 0.114E+00
   0.299E+02 0.322E-11 -.556E+01   -.304E+02 -.409E-13 0.679E+01   0.749E+00 -.141E-19 -.129E+01   -.310E+00 -.954E-11 0.114E+00
   0.299E+02 -.820E-12 -.556E+01   -.304E+02 -.320E-13 0.679E+01   0.749E+00 -.141E-19 -.129E+01   -.310E+00 -.110E-10 0.114E+00
   -.907E+02 -.143E-11 0.387E+02   0.124E+03 -.409E-13 -.410E+02   -.350E+02 -.359E-19 0.308E+01   0.116E+01 -.339E-10 -.660E+00
   -.907E+02 -.147E-11 0.387E+02   0.124E+03 -.107E-13 -.410E+02   -.350E+02 -.284E-19 0.308E+01   0.116E+01 -.308E-10 -.660E+00
   -.907E+02 -.489E-11 0.387E+02   0.124E+03 -.373E-13 -.410E+02   -.350E+02 -.471E-19 0.308E+01   0.116E+01 -.294E-10 -.660E+00
   -.907E+02 0.129E-10 0.387E+02   0.124E+03 -.142E-13 -.410E+02   -.350E+02 -.237E-19 0.308E+01   0.116E+01 -.362E-10 -.660E+00
   -.445E+02 0.922E+02 0.336E+02   0.582E+02 -.114E+03 -.474E+02   -.146E+02 0.234E+02 0.142E+02   0.672E+00 -.102E+01 -.259E+00
   -.445E+02 0.922E+02 0.336E+02   0.582E+02 -.114E+03 -.474E+02   -.146E+02 0.234E+02 0.142E+02   0.672E+00 -.102E+01 -.259E+00
   -.445E+02 0.922E+02 0.336E+02   0.582E+02 -.114E+03 -.474E+02   -.146E+02 0.234E+02 0.142E+02   0.672E+00 -.102E+01 -.259E+00
   -.445E+02 0.922E+02 0.336E+02   0.582E+02 -.114E+03 -.474E+02   -.146E+02 0.234E+02 0.142E+02   0.672E+00 -.102E+01 -.259E+00
   -.445E+02 -.922E+02 0.336E+02   0.582E+02 0.114E+03 -.474E+02   -.146E+02 -.234E+02 0.142E+02   0.672E+00 0.102E+01 -.259E+00
   -.445E+02 -.922E+02 0.336E+02   0.582E+02 0.114E+03 -.474E+02   -.146E+02 -.234E+02 0.142E+02   0.672E+00 0.102E+01 -.259E+00
   -.445E+02 -.922E+02 0.336E+02   0.582E+02 0.114E+03 -.474E+02   -.146E+02 -.234E+02 0.142E+02   0.672E+00 0.102E+01 -.259E+00
   -.445E+02 -.922E+02 0.336E+02   0.582E+02 0.114E+03 -.474E+02   -.146E+02 -.234E+02 0.142E+02   0.672E+00 0.102E+01 -.259E+00
[...]
   0.806E+02 -.436E-11 -.101E+03   -.948E+02 -.160E-13 0.130E+03   0.158E+02 0.738E-19 -.305E+02   -.136E+01 0.590E-11 0.104E+01
   0.806E+02 0.467E-11 -.101E+03   -.948E+02 -.711E-14 0.130E+03   0.158E+02 0.739E-19 -.305E+02   -.136E+01 0.924E-11 0.104E+01
   0.907E+02 -.157E-11 0.387E+02   -.124E+03 0.798E-12 -.410E+02   0.350E+02 -.491E-19 0.308E+01   -.116E+01 0.703E-11 -.660E+00
   0.907E+02 -.170E-11 0.387E+02   -.124E+03 0.775E-12 -.410E+02   0.350E+02 0.674E-19 0.308E+01   -.116E+01 0.444E-11 -.660E+00
   0.907E+02 -.646E-11 0.387E+02   -.124E+03 0.791E-12 -.410E+02   0.350E+02 -.548E-19 0.308E+01   -.116E+01 0.674E-11 -.660E+00
   0.907E+02 -.600E-11 0.387E+02   -.124E+03 0.775E-12 -.410E+02   0.350E+02 -.463E-19 0.308E+01   -.116E+01 0.129E-10 -.660E+00
   -.445E+02 0.922E+02 -.336E+02   0.582E+02 -.114E+03 0.474E+02   -.146E+02 0.234E+02 -.142E+02   0.672E+00 -.102E+01 0.259E+00
   -.445E+02 0.922E+02 -.336E+02   0.582E+02 -.114E+03 0.474E+02   -.146E+02 0.234E+02 -.142E+02   0.672E+00 -.102E+01 0.259E+00
   -.445E+02 0.922E+02 -.336E+02   0.582E+02 -.114E+03 0.474E+02   -.146E+02 0.234E+02 -.142E+02   0.672E+00 -.102E+01 0.259E+00
   -.445E+02 0.922E+02 -.336E+02   0.582E+02 -.114E+03 0.474E+02   -.146E+02 0.234E+02 -.142E+02   0.672E+00 -.102E+01 0.259E+00
   0.445E+02 -.922E+02 -.336E+02   -.582E+02 0.114E+03 0.474E+02   0.146E+02 -.234E+02 -.142E+02   -.672E+00 0.102E+01 0.259E+00
   0.445E+02 -.922E+02 -.336E+02   -.582E+02 0.114E+03 0.474E+02   0.146E+02 -.234E+02 -.142E+02   -.672E+00 0.102E+01 0.259E+00
   0.445E+02 -.922E+02 -.336E+02   -.582E+02 0.114E+03 0.474E+02   0.146E+02 -.234E+02 -.142E+02   -.672E+00 0.102E+01 0.259E+00
   0.445E+02 -.922E+02 -.336E+02   -.582E+02 0.114E+03 0.474E+02   0.146E+02 -.234E+02 -.142E+02   -.672E+00 0.102E+01 0.259E+00
   0.631E-10 0.199E-11 -.126E-10   0.533E-12 -.227E-12 -.426E-12   0.126E-12 0.000E+00 0.497E-13   -.178E-10 0.258E-10 -.365E-11

 POSITION                                       TOTAL-FORCE (eV/Angst)
      0.00000      0.00000      0.00000         0.000000     -0.000000     -0.000000
      0.00000      6.07741      0.00000         0.000000     -0.000000     -0.000000
      4.75466      0.00000      0.00000         0.000000     -0.000000     -0.000000
      4.75466      6.07741      0.00000         0.000000     -0.000000     -0.000000
      2.37733      3.03870      5.21203         0.000000     -0.000000     -0.000000
      2.37733      9.11611      5.21203         0.000000     -0.000000     -0.000000
      7.13199      3.03870      5.21203         0.000000     -0.000000     -0.000000
      7.13199      9.11611      5.21203         0.000000     -0.000000     -0.000000
      2.37733      0.00000      5.21203         0.000000     -0.000000     -0.000000
      2.37733      6.07741      5.21203         0.000000     -0.000000     -0.000000
      7.13199      0.00000      5.21203         0.000000     -0.000000     -0.000000
      7.13199      6.07741      5.21203         0.000000     -0.000000     -0.000000
      0.00000      3.03870      0.00000         0.000000     -0.000000     -0.000000
      0.00000      9.11611      0.00000         0.000000     -0.000000     -0.000000
      4.75466      3.03870      0.00000         0.000000     -0.000000     -0.000000
      4.75466      9.11611      0.00000         0.000000     -0.000000     -0.000000
      2.49664      1.51935      8.14251         0.012586     -0.000000      0.007014
      2.49664      7.59676      8.14251         0.012586     -0.000000      0.007014
      7.25130      1.51935      8.14251         0.012586     -0.000000      0.007014
      7.25130      7.59676      8.14251         0.012586     -0.000000      0.007014
      0.11931      4.55806      7.49357         0.012586     -0.000000     -0.007014
      0.11931     10.63547      7.49357         0.012586     -0.000000     -0.007014
      4.87397      4.55806      7.49357         0.012586     -0.000000     -0.007014
      4.87397     10.63547      7.49357         0.012586     -0.000000     -0.007014
      4.63535      1.51935      2.93048        -0.012586     -0.000000      0.007014
      4.63535      7.59676      2.93048        -0.012586     -0.000000      0.007014
      9.39001      1.51935      2.93048        -0.012586     -0.000000      0.007014
      9.39001      7.59676      2.93048        -0.012586     -0.000000      0.007014
      2.25802      4.55806      2.28154        -0.012586     -0.000000     -0.007014
      2.25802     10.63547      2.28154        -0.012586     -0.000000     -0.007014
      7.01268      4.55806      2.28154        -0.012586     -0.000000     -0.007014
      7.01268     10.63547      2.28154        -0.012586     -0.000000     -0.007014
      1.98780      1.51935      0.98530         0.080974     -0.000000     -0.044914
      1.98780      7.59676      0.98530         0.080974     -0.000000     -0.044914
      6.74246      1.51935      0.98530         0.080974     -0.000000     -0.044914
      6.74246      7.59676      0.98530         0.080974     -0.000000     -0.044914
      4.36513      4.55806      4.22673         0.080974     -0.000000      0.044914
      4.36513     10.63547      4.22673         0.080974     -0.000000      0.044914
      9.11978      4.55806      4.22673         0.080974     -0.000000      0.044914
      9.11978     10.63547      4.22673         0.080974     -0.000000      0.044914
      0.38953      1.51935      6.19732        -0.080974     -0.000000     -0.044914
      0.38953      7.59676      6.19732        -0.080974     -0.000000     -0.044914
      5.14419      1.51935      6.19732        -0.080974     -0.000000     -0.044914
      5.14419      7.59676      6.19732        -0.080974     -0.000000     -0.044914
      2.76686      4.55806      9.43875        -0.080974     -0.000000      0.044914
      2.76686     10.63547      9.43875        -0.080974     -0.000000      0.044914
      7.52152      4.55806      9.43875        -0.080974     -0.000000      0.044914
      7.52152     10.63547      9.43875        -0.080974     -0.000000      0.044914
      3.52497      1.51935      1.00710        -0.406558     -0.000000      0.096201
      3.52497      7.59676      1.00710        -0.406558     -0.000000      0.096201
      8.27963      1.51935      1.00710        -0.406558     -0.000000      0.096201
      8.27963      7.59676      1.00710        -0.406558     -0.000000      0.096201
      3.39781      3.32312      8.69584        -0.166313      0.285593      0.110638
      3.39781      9.40053      8.69584        -0.166313      0.285593      0.110638
      8.15247      3.32312      8.69584        -0.166313      0.285593      0.110638
      8.15247      9.40053      8.69584        -0.166313      0.285593      0.110638
      3.39781      5.79299      8.69584        -0.166313     -0.285593      0.110638
      3.39781     11.87040      8.69584        -0.166313     -0.285593      0.110638
      8.15247      5.79299      8.69584        -0.166313     -0.285593      0.110638
      8.15247     11.87040      8.69584        -0.166313     -0.285593      0.110638
[...]
      3.76954     10.63547      5.66255         0.273011     -0.000000     -0.367358
      8.52420      4.55806      5.66255         0.273011     -0.000000     -0.367358
      8.52420     10.63547      5.66255         0.273011     -0.000000     -0.367358
      3.60702      1.51935      6.21913         0.406558     -0.000000      0.096201
      3.60702      7.59676      6.21913         0.406558     -0.000000      0.096201
      8.36168      1.51935      6.21913         0.406558     -0.000000      0.096201
      8.36168      7.59676      6.21913         0.406558     -0.000000      0.096201
      1.02048      0.28442      6.94024        -0.166313      0.285593     -0.110638
      1.02048      6.36183      6.94024        -0.166313      0.285593     -0.110638
      5.77514      0.28442      6.94024        -0.166313      0.285593     -0.110638
      5.77514      6.36183      6.94024        -0.166313      0.285593     -0.110638
      1.35685      2.75428      1.72821         0.166313     -0.285593     -0.110638
      1.35685      8.83169      1.72821         0.166313     -0.285593     -0.110638
      6.11151      2.75428      1.72821         0.166313     -0.285593     -0.110638
      6.11151      8.83169      1.72821         0.166313     -0.285593     -0.110638
    total drift:                                0.000000      0.000000     -0.000000

  FREE ENERGIE OF THE ION-ELECTRON SYSTEM (eV)
  free  energy   TOTEN  =      -767.63644137 eV

  energy  without entropy=     -767.63644137  energy(sigma->0) =     -767.63644137

 total charge

[...]

 magnetization (x)

# of ion       s       p       d       tot
    1        0.000   0.001   0.000   0.001
    2        0.000   0.001   0.000   0.001
    3        0.000   0.001   0.000   0.001
    4        0.000   0.001   0.000   0.001
    5        0.000   0.001   0.000   0.001
    6        0.000   0.001   0.000   0.001
    7        0.000   0.001   0.000   0.001
    8        0.000   0.001   0.000   0.001
    9        0.000   0.001   0.000   0.001
   10        0.000   0.001   0.000   0.001
   11        0.000   0.001   0.000   0.001
   12        0.000   0.001   0.000   0.001
   13        0.000   0.001   0.000   0.001
   14        0.000   0.001   0.000   0.001
   15        0.000   0.001   0.000   0.001
   16        0.000   0.001   0.000   0.001
   17        0.021   0.022   3.746   3.790
   18        0.021   0.022   3.746   3.790
   19        0.021   0.022   3.746   3.790
   20        0.021   0.022   3.746   3.790
   21        0.021   0.022   3.746   3.790
   22        0.021   0.022   3.746   3.790
   23        0.021   0.022   3.746   3.790
   24        0.021   0.022   3.746   3.790
   25        0.021   0.022   3.746   3.790
   26        0.021   0.022   3.746   3.790
   27        0.021   0.022   3.746   3.790
   28        0.021   0.022   3.746   3.790
   29        0.021   0.022   3.746   3.790
   30        0.021   0.022   3.746   3.790
   31        0.021   0.022   3.746   3.790
   32        0.021   0.022   3.746   3.790
   33        0.003   0.011   0.000   0.014
   34        0.003   0.011   0.000   0.014
   35        0.003   0.011   0.000   0.014
   36        0.003   0.011   0.000   0.014
   37        0.003   0.011   0.000   0.014
   38        0.003   0.011   0.000   0.014
   39        0.003   0.011   0.000   0.014
   40        0.003   0.011   0.000   0.014
   41        0.003   0.011   0.000   0.014
   42        0.003   0.011   0.000   0.014
   43        0.003   0.011   0.000   0.014
   44        0.003   0.011   0.000   0.014
   45        0.003   0.011   0.000   0.014
   46        0.003   0.011   0.000   0.014
   47        0.003   0.011   0.000   0.014
   48        0.003   0.011   0.000   0.014
   49        0.002   0.006   0.000   0.008
   50        0.002   0.006   0.000   0.008
   51        0.002   0.006   0.000   0.008
   52        0.002   0.006   0.000   0.008
   53        0.005   0.025   0.000   0.029
   54        0.005   0.025   0.000   0.029
   55        0.005   0.025   0.000   0.029
   56        0.005   0.025   0.000   0.029
   57        0.005   0.025   0.000   0.029
   58        0.005   0.025   0.000   0.029
   59        0.005   0.025   0.000   0.029
   60        0.005   0.025   0.000   0.029
[...]
   98        0.002   0.011   0.000   0.013
   99        0.002   0.011   0.000   0.013
  100        0.002   0.011   0.000   0.013
  101        0.002   0.006   0.000   0.008
  102        0.002   0.006   0.000   0.008
  103        0.002   0.006   0.000   0.008
  104        0.002   0.006   0.000   0.008
  105        0.005   0.025   0.000   0.029
  106        0.005   0.025   0.000   0.029
  107        0.005   0.025   0.000   0.029
  108        0.005   0.025   0.000   0.029
  109        0.005   0.025   0.000   0.029
  110        0.005   0.025   0.000   0.029
  111        0.005   0.025   0.000   0.029
  112        0.005   0.025   0.000   0.029
tot          0.615   1.597  59.943  62.155